499.12,75.44,86.15
504.19,74.68,85.29
525.12,71.7,81.89
541.26,69.56,79.45
549.97,68.46,78.19
501.2,75.12,85.8
528.0,71.31,81.44
538.37,69.94,79.87
516.1,72.95,83.32
546.43,68.91,78.7
508.33,74.07,84.59
511.91,73.55,84.0
533.39,70.59,80.62
547.21,68.81,78.58
518.32,72.64,82.96
566.67,66.44,75.89
557.2,67.57,77.17
487.35,77.26,88.24
551.73,68.24,77.94
511.08,73.67,84.14
